50
120
98
98
95
95
93
91
91
89
89
87
83
83
82
78
77
76
75
74
72
67
62
61
59
57
55
55
54
52
50
49
49
48
47
47
45
45
44
44
43
43
42
40
39
39
38
37
36
33
33
31
